120
150
67
100
79
80
29
85
35
51
87
36
86
35
34
79
75
22
69
38
73
35
82
26
80
75
52
64
98
92
29
20
21
45
24
96
87
36
82
36
65
92
31
57
68
28
20
32
92
36
20
22
52
60
97
50
55
26
82
71
53
41
99
22
47
66
92
55
25
89
50
51
73
24
87
29
69
40
44
62
29
39
90
68
65
74
75
90
33
92
85
46
80
78
83
34
20
100
61
87
42
27
89
21
93
33
45
63
73
22
59
86
22
43
78
80
82
69
68
29
81
41
